0
0
79
70
34
12
18
32
17
73
7
62
86
77
68
6
39
41
47
90
93
4
31
44
67
87
33
45
52
80
84
76
81
65
83
75
38
95
89
88
94
30
59
72
97
29
64
19
48
37
14
92
60
9
2
63
11
24
36
98
55
26
66
8
91
15
35
50
23
69
78
27
20
28
13
16
71
42
51
56
82
61
21
74
22
58
25
5
99
46
85
10
53
43
1
57
3
49
54
40
96
